% demand
num_movements = 22;
loading_factor = [1500, 1700, 950, 1850, 1000, 1500, 900, 1250, 1000, 1500, 1350, 1900, 1000, 1150, 800, 1150, 1700, 1200, 1350, 1450, 1150, 1550];
pickup_time = [0, 0, 0, 0, 0, 2, 2, 2, 2, 3, 4, 5, 5, 5, 6, 7, 8, 8, 8, 8, 10, 10];
delivery_time = [2, 2, 2, 2, 2, 5, 4, 4, 4, 6, 8, 8, 10, 6, 8, 8, 10, 10, 11, 11, 11, 11];

% transporter definition
total_capacity = 7000;
num_decks = 3;
capacity = [3000, 1000, 3000];

% ways out of decks
num_ways_out = 1;
paths_out = array3d(decks, ways_out, decks, [
% ways out of deck d1
2, 3, 0, 

% ways out of deck d2
3, 0, 0, 

% ways out of deck d3
0, 0, 0,	

]);

